words_hard_train/1062.qaiger
aag 159 24 0 1 135
2
4
12
14
18
22
26
36
46
64
68
84
100
120
136
156
174
176
180
184
188
192
196
302
318
6 2 5
8 3 4
10 7 9
16 13 15
20 16 18
24 20 22
28 24 27
30 16 23
32 31 18
34 33 27
38 34 37
40 35 36
42 39 41
44 28 43
48 41 47
50 44 48
52 40 46
54 29 52
56 51 55
58 11 56
60 10 57
62 59 61
66 64 23
70 69 13
72 68 12
74 71 73
76 66 74
78 77 73
80 12 14
82 81 17
86 83 85
88 82 84
90 87 89
92 79 90
94 93 89
96 17 19
98 97 21
102 99 101
104 98 100
106 103 105
108 95 106
110 109 105
112 29 35
114 17 18
116 114 26
118 112 117
122 119 121
124 118 120
126 123 125
128 111 126
130 129 125
132 29 42
134 133 45
138 135 137
140 134 136
142 139 141
144 131 142
146 145 141
148 49 53
150 44 149
152 45 148
154 151 153
158 155 157
160 154 156
162 159 161
164 147 162
166 165 161
168 63 167
170 62 166
172 169 171
178 175 177
182 178 181
186 182 185
190 186 189
194 190 193
198 194 197
200 172 199
202 130 143
204 203 145
206 191 192
208 207 195
210 204 208
212 110 127
214 213 129
216 187 188
218 217 191
220 214 218
222 211 221
224 78 91
226 225 93
228 227 180
230 229 183
232 226 181
234 174 176
236 67 75
238 235 237
240 174 177
242 67 74
244 241 243
246 65 22
248 245 247
250 239 249
252 251 77
254 233 253
256 254 179
258 230 257
260 183 184
262 261 187
264 94 107
266 265 109
268 262 266
270 259 269
272 263 267
274 271 273
276 215 219
278 274 277
280 222 279
282 205 209
284 281 283
286 146 163
288 287 165
290 195 196
292 291 199
294 288 292
296 285 295
298 289 293
300 297 299
304 300 302
306 200 305
308 173 198
310 304 308
312 307 311
314 301 303
316 314 309
318 312 317
i0 2 y1[7]
i1 1 x2[7]
i2 1 x2[1]
i3 1 x2[2]
i4 1 x2[3]
i5 1 x2[0]
i6 1 x2[4]
i7 1 x2[5]
i8 1 x2[6]
i9 2 y1[0]
i10 2 y1[1]
i11 2 y1[2]
i12 2 y1[3]
i13 2 y1[4]
i14 2 y1[5]
i15 2 y1[6]
i16 1 x1[7]
i17 1 x1[6]
i18 1 x1[5]
i19 1 x1[4]
i20 1 x1[3]
i21 1 x1[2]
i22 1 x1[1]
i23 1 x1[0]
o0 bv[0]
c
simplified
  >=
    subtract
      2 y1
      subtract
        1 x2
        105
    reverse
      1 x1
