words_hard_train/1062.qaiger.qdimacs
p cnf 159 406
a 96 2 98 6 7 9 11 13 18 87 23 88 151 90 92 94 0
e 1 3 4 5 8 10 12 14 15 16 17 19 20 21 22 24 25 26 27 28 29 30 31 32 33 34 35 36 37 38 39 40 41 42 43 44 45 46 47 48 49 50 51 52 53 54 55 56 57 58 59 60 61 62 63 64 65 66 67 68 69 70 71 72 73 74 75 76 77 78 79 80 81 82 83 84 85 86 89 91 93 95 97 99 100 101 102 103 104 105 106 107 108 109 110 111 112 113 114 115 116 117 118 119 120 121 122 123 124 125 126 127 128 129 130 131 132 133 134 135 136 137 138 139 140 141 142 143 144 145 146 147 148 149 150 152 153 154 155 156 157 158 159 0
-1 2 3 0
1 -3 0
-2 -3 0
1 -2 4 0
-1 -4 0
2 -4 0
3 4 5 0
-3 -5 0
-4 -5 0
6 7 8 0
-6 -8 0
-7 -8 0
-8 -9 10 0
8 -10 0
9 -10 0
-10 -11 12 0
10 -12 0
11 -12 0
-12 13 14 0
12 -14 0
-13 -14 0
-8 11 15 0
8 -15 0
-11 -15 0
15 -9 16 0
-15 -16 0
9 -16 0
16 13 17 0
-16 -17 0
-13 -17 0
-17 18 19 0
17 -19 0
-18 -19 0
17 -18 20 0
-17 -20 0
18 -20 0
19 20 21 0
-19 -21 0
-20 -21 0
-14 21 22 0
14 -22 0
-21 -22 0
20 23 24 0
-20 -24 0
-23 -24 0
-22 -24 25 0
22 -25 0
24 -25 0
-20 -23 26 0
20 -26 0
23 -26 0
14 -26 27 0
-14 -27 0
26 -27 0
25 27 28 0
-25 -28 0
-27 -28 0
5 -28 29 0
-5 -29 0
28 -29 0
-5 28 30 0
5 -30 0
-28 -30 0
29 30 31 0
-29 -31 0
-30 -31 0
-32 11 33 0
32 -33 0
-11 -33 0
34 6 35 0
-34 -35 0
-6 -35 0
-34 -6 36 0
34 -36 0
6 -36 0
35 36 37 0
-35 -37 0
-36 -37 0
-33 -37 38 0
33 -38 0
37 -38 0
38 36 39 0
-38 -39 0
-36 -39 0
-6 -7 40 0
6 -40 0
7 -40 0
40 8 41 0
-40 -41 0
-8 -41 0
41 42 43 0
-41 -43 0
-42 -43 0
-41 -42 44 0
41 -44 0
42 -44 0
43 44 45 0
-43 -45 0
-44 -45 0
39 -45 46 0
-39 -46 0
45 -46 0
46 44 47 0
-46 -47 0
-44 -47 0
8 9 48 0
-8 -48 0
-9 -48 0
48 10 49 0
-48 -49 0
-10 -49 0
49 50 51 0
-49 -51 0
-50 -51 0
-49 -50 52 0
49 -52 0
50 -52 0
51 52 53 0
-51 -53 0
-52 -53 0
47 -53 54 0
-47 -54 0
53 -54 0
54 52 55 0
-54 -55 0
-52 -55 0
14 17 56 0
-14 -56 0
-17 -56 0
8 -9 57 0
-8 -57 0
9 -57 0
-57 -13 58 0
57 -58 0
13 -58 0
-56 58 59 0
56 -59 0
-58 -59 0
59 60 61 0
-59 -61 0
-60 -61 0
-59 -60 62 0
59 -62 0
60 -62 0
61 62 63 0
-61 -63 0
-62 -63 0
55 -63 64 0
-55 -64 0
63 -64 0
64 62 65 0
-64 -65 0
-62 -65 0
14 -21 66 0
-14 -66 0
21 -66 0
66 22 67 0
-66 -67 0
-22 -67 0
67 68 69 0
-67 -69 0
-68 -69 0
-67 -68 70 0
67 -70 0
68 -70 0
69 70 71 0
-69 -71 0
-70 -71 0
65 -71 72 0
-65 -72 0
71 -72 0
72 70 73 0
-72 -73 0
-70 -73 0
24 26 74 0
-24 -74 0
-26 -74 0
-22 74 75 0
22 -75 0
-74 -75 0
22 -74 76 0
-22 -76 0
74 -76 0
75 76 77 0
-75 -77 0
-76 -77 0
77 78 79 0
-77 -79 0
-78 -79 0
-77 -78 80 0
77 -80 0
78 -80 0
79 80 81 0
-79 -81 0
-80 -81 0
73 -81 82 0
-73 -82 0
81 -82 0
82 80 83 0
-82 -83 0
-80 -83 0
31 83 84 0
-31 -84 0
-83 -84 0
-31 -83 85 0
31 -85 0
83 -85 0
84 85 86 0
-84 -86 0
-85 -86 0
87 88 89 0
-87 -89 0
-88 -89 0
-89 90 91 0
89 -91 0
-90 -91 0
-91 92 93 0
91 -93 0
-92 -93 0
-93 94 95 0
93 -95 0
-94 -95 0
-95 96 97 0
95 -97 0
-96 -97 0
-97 98 99 0
97 -99 0
-98 -99 0
-86 99 100 0
86 -100 0
-99 -100 0
-65 71 101 0
65 -101 0
-71 -101 0
101 72 102 0
-101 -102 0
-72 -102 0
95 -96 103 0
-95 -103 0
96 -103 0
103 97 104 0
-103 -104 0
-97 -104 0
-102 -104 105 0
102 -105 0
104 -105 0
-55 63 106 0
55 -106 0
-63 -106 0
106 64 107 0
-106 -107 0
-64 -107 0
93 -94 108 0
-93 -108 0
94 -108 0
108 95 109 0
-108 -109 0
-95 -109 0
-107 -109 110 0
107 -110 0
109 -110 0
105 110 111 0
-105 -111 0
-110 -111 0
-39 45 112 0
39 -112 0
-45 -112 0
112 46 113 0
-112 -113 0
-46 -113 0
113 -90 114 0
-113 -114 0
90 -114 0
114 91 115 0
-114 -115 0
-91 -115 0
-113 90 116 0
113 -116 0
-90 -116 0
-87 -88 117 0
87 -117 0
88 -117 0
33 37 118 0
-33 -118 0
-37 -118 0
117 118 119 0
-117 -119 0
-118 -119 0
-87 88 120 0
87 -120 0
-88 -120 0
33 -37 121 0
-33 -121 0
37 -121 0
120 121 122 0
-120 -122 0
-121 -122 0
32 -11 123 0
-32 -123 0
11 -123 0
122 123 124 0
-122 -124 0
-123 -124 0
119 124 125 0
-119 -125 0
-124 -125 0
125 38 126 0
-125 -126 0
-38 -126 0
116 126 127 0
-116 -127 0
-126 -127 0
-127 89 128 0
127 -128 0
-89 -128 0
-115 128 129 0
115 -129 0
-128 -129 0
91 -92 130 0
-91 -130 0
92 -130 0
130 93 131 0
-130 -131 0
-93 -131 0
-47 53 132 0
47 -132 0
-53 -132 0
132 54 133 0
-132 -133 0
-54 -133 0
-131 -133 134 0
131 -134 0
133 -134 0
129 134 135 0
-129 -135 0
-134 -135 0
131 133 136 0
-131 -136 0
-133 -136 0
135 136 137 0
-135 -137 0
-136 -137 0
107 109 138 0
-107 -138 0
-109 -138 0
-137 138 139 0
137 -139 0
-138 -139 0
-111 139 140 0
111 -140 0
-139 -140 0
102 104 141 0
-102 -141 0
-104 -141 0
140 141 142 0
-140 -142 0
-141 -142 0
-73 81 143 0
73 -143 0
-81 -143 0
143 82 144 0
-143 -144 0
-82 -144 0
97 -98 145 0
-97 -145 0
98 -145 0
145 99 146 0
-145 -146 0
-99 -146 0
-144 -146 147 0
144 -147 0
146 -147 0
142 147 148 0
-142 -148 0
-147 -148 0
144 146 149 0
-144 -149 0
-146 -149 0
148 149 150 0
-148 -150 0
-149 -150 0
-150 -151 152 0
150 -152 0
151 -152 0
-100 152 153 0
100 -153 0
-152 -153 0
86 -99 154 0
-86 -154 0
99 -154 0
-152 -154 155 0
152 -155 0
154 -155 0
153 155 156 0
-153 -156 0
-155 -156 0
150 151 157 0
-150 -157 0
-151 -157 0
-157 154 158 0
157 -158 0
-154 -158 0
-156 158 159 0
156 -159 0
-158 -159 0
159 0
